p cnf 545 937               
-2 -1 -52 0
52 -56 0
-1 53 0
-2 53 0
1 2 -53 0
-53 -3 -54 0
54 -56 0
3 53 -55 0
55 -56 0
56 -112 0
-5 -4 -57 0
57 -61 0
-4 58 0
-5 58 0
4 5 -58 0
-58 -6 -59 0
59 -61 0
6 58 -60 0
60 -61 0
61 -112 0
-8 -7 -62 0
62 -66 0
-7 63 0
-8 63 0
7 8 -63 0
-63 -9 -64 0
64 -66 0
9 63 -65 0
65 -66 0
66 -112 0
-11 -10 -67 0
67 -71 0
-10 68 0
-11 68 0
10 11 -68 0
-68 -12 -69 0
69 -71 0
12 68 -70 0
70 -71 0
71 -112 0
-14 -13 -72 0
72 -76 0
-13 73 0
-14 73 0
13 14 -73 0
-73 -15 -74 0
74 -76 0
15 73 -75 0
75 -76 0
76 -112 0
-17 -16 -77 0
77 -81 0
-16 78 0
-17 78 0
16 17 -78 0
-78 -18 -79 0
79 -81 0
18 78 -80 0
80 -81 0
81 -112 0
-20 -19 -82 0
82 -86 0
-19 83 0
-20 83 0
19 20 -83 0
-83 -21 -84 0
84 -86 0
21 83 -85 0
85 -86 0
86 -112 0
-23 -22 -87 0
87 -91 0
-22 88 0
-23 88 0
22 23 -88 0
-88 -24 -89 0
89 -91 0
24 88 -90 0
90 -91 0
91 -112 0
-26 -25 -92 0
92 -96 0
-25 93 0
-26 93 0
25 26 -93 0
-93 -27 -94 0
94 -96 0
27 93 -95 0
95 -96 0
96 -112 0
-29 -28 -97 0
97 -101 0
-28 98 0
-29 98 0
28 29 -98 0
-98 -30 -99 0
99 -101 0
30 98 -100 0
100 -101 0
101 -112 0
-32 -31 -102 0
102 -106 0
-31 103 0
-32 103 0
31 32 -103 0
-103 -33 -104 0
104 -106 0
33 103 -105 0
105 -106 0
106 -112 0
-35 -34 -107 0
107 -111 0
-34 108 0
-35 108 0
34 35 -108 0
-108 -36 -109 0
109 -111 0
36 108 -110 0
110 -111 0
111 -112 0
112 -236 0
-38 -37 -113 0
113 -119 0
-37 114 0
-38 114 0
37 38 -114 0
-114 -39 -115 0
115 -119 0
-39 116 0
-114 116 0
39 114 -116 0
-116 -40 -117 0
117 -119 0
40 116 -118 0
118 -119 0
119 -134 0
-42 -41 -120 0
120 -126 0
-41 121 0
-42 121 0
41 42 -121 0
-121 -43 -122 0
122 -126 0
-43 123 0
-121 123 0
43 121 -123 0
-123 -44 -124 0
124 -126 0
44 123 -125 0
125 -126 0
126 -134 0
-46 -45 -127 0
127 -133 0
-45 128 0
-46 128 0
45 46 -128 0
-128 -47 -129 0
129 -133 0
-47 130 0
-128 130 0
47 128 -130 0
-130 -48 -131 0
131 -133 0
48 130 -132 0
132 -133 0
133 -134 0
134 -236 0
-50 -49 -135 0
135 -139 0
-49 136 0
-50 136 0
49 50 -136 0
-136 -51 -137 0
137 -139 0
51 136 -138 0
138 -139 0
139 -236 0
10 -149 0
49 -149 0
-10 -49 149 0
-149 185 0
22 -161 0
50 -161 0
-22 -50 161 0
-161 185 0
34 -173 0
51 -173 0
-34 -51 173 0
-173 185 0
149 161 173 -185 0
185 231 0
1 -140 0
49 -140 0
-1 -49 140 0
-140 176 0
13 -152 0
50 -152 0
-13 -50 152 0
-152 176 0
25 -164 0
51 -164 0
-25 -51 164 0
-164 176 0
140 152 164 -176 0
-37 -49 188 0
-188 200 0
-41 -50 192 0
-192 200 0
-45 -51 196 0
-196 200 0
-176 -200 204 0
-204 216 0
4 -143 0
49 -143 0
-4 -49 143 0
-143 179 0
16 -155 0
50 -155 0
-16 -50 155 0
-155 179 0
28 -167 0
51 -167 0
-28 -51 167 0
-167 179 0
143 155 167 -179 0
-38 -49 189 0
-189 201 0
-42 -50 193 0
-193 201 0
-46 -51 197 0
-197 201 0
-179 -201 207 0
-207 216 0
7 -146 0
49 -146 0
-7 -49 146 0
-146 182 0
19 -158 0
50 -158 0
-19 -50 158 0
-158 182 0
31 -170 0
51 -170 0
-31 -51 170 0
-170 182 0
146 158 170 -182 0
-39 -49 190 0
-190 202 0
-43 -50 194 0
-194 202 0
-47 -51 198 0
-198 202 0
-182 -202 210 0
-210 216 0
-40 -49 191 0
-191 203 0
-44 -50 195 0
-195 203 0
-48 -51 199 0
-199 203 0
-185 -203 213 0
-213 216 0
-216 231 0
11 -150 0
49 -150 0
-11 -49 150 0
-150 186 0
23 -162 0
50 -162 0
-23 -50 162 0
-162 186 0
35 -174 0
51 -174 0
-35 -51 174 0
-174 186 0
150 162 174 -186 0
186 232 0
2 -141 0
49 -141 0
-2 -49 141 0
-141 177 0
14 -153 0
50 -153 0
-14 -50 153 0
-153 177 0
26 -165 0
51 -165 0
-26 -51 165 0
-165 177 0
141 153 165 -177 0
-177 -200 205 0
-205 217 0
5 -144 0
49 -144 0
-5 -49 144 0
-144 180 0
17 -156 0
50 -156 0
-17 -50 156 0
-156 180 0
29 -168 0
51 -168 0
-29 -51 168 0
-168 180 0
144 156 168 -180 0
-180 -201 208 0
-208 217 0
8 -147 0
49 -147 0
-8 -49 147 0
-147 183 0
20 -159 0
50 -159 0
-20 -50 159 0
-159 183 0
32 -171 0
51 -171 0
-32 -51 171 0
-171 183 0
147 159 171 -183 0
-183 -202 211 0
-211 217 0
-186 -203 214 0
-214 217 0
-217 232 0
12 -151 0
49 -151 0
-12 -49 151 0
-151 187 0
24 -163 0
50 -163 0
-24 -50 163 0
-163 187 0
36 -175 0
51 -175 0
-36 -51 175 0
-175 187 0
151 163 175 -187 0
187 233 0
3 -142 0
49 -142 0
-3 -49 142 0
-142 178 0
15 -154 0
50 -154 0
-15 -50 154 0
-154 178 0
27 -166 0
51 -166 0
-27 -51 166 0
-166 178 0
142 154 166 -178 0
-178 -200 206 0
-206 218 0
6 -145 0
49 -145 0
-6 -49 145 0
-145 181 0
18 -157 0
50 -157 0
-18 -50 157 0
-157 181 0
30 -169 0
51 -169 0
-30 -51 169 0
-169 181 0
145 157 169 -181 0
-181 -201 209 0
-209 218 0
9 -148 0
49 -148 0
-9 -49 148 0
-148 184 0
21 -160 0
50 -160 0
-21 -50 160 0
-160 184 0
33 -172 0
51 -172 0
-33 -51 172 0
-172 184 0
148 160 172 -184 0
-184 -202 212 0
-212 218 0
-187 -203 215 0
-215 218 0
-218 233 0
-231 -232 -233 234 0
-234 -235 0
182 227 0
-216 227 0
183 228 0
-217 228 0
184 229 0
-218 229 0
-227 -228 -229 230 0
-230 -235 0
179 223 0
-216 223 0
180 224 0
-217 224 0
181 225 0
-218 225 0
-223 -224 -225 226 0
-226 -235 0
176 219 0
-216 219 0
177 220 0
-217 220 0
178 221 0
-218 221 0
-219 -220 -221 222 0
-222 -235 0
235 -236 0
-37 38 -237 0
237 -283 0
-37 -38 238 0
37 38 238 0
-38 38 238 0
-41 42 -239 0
-238 239 -240 0
240 -283 0
-41 -42 241 0
41 42 241 0
-42 42 241 0
-238 -241 242 0
-45 46 -243 0
-242 243 -244 0
244 -283 0
-45 -46 245 0
45 46 245 0
-46 46 245 0
-242 -245 246 0
-1 4 -247 0
-246 247 -248 0
248 -283 0
-1 -4 249 0
1 4 249 0
-4 4 249 0
-246 -249 250 0
-2 5 -251 0
-250 251 -252 0
252 -283 0
-2 -5 253 0
2 5 253 0
-5 5 253 0
-250 -253 254 0
-3 6 -255 0
-254 255 -256 0
256 -283 0
-3 -6 257 0
3 6 257 0
-6 6 257 0
-254 -257 258 0
-13 16 -259 0
-258 259 -260 0
260 -283 0
-13 -16 261 0
13 16 261 0
-16 16 261 0
-258 -261 262 0
-14 17 -263 0
-262 263 -264 0
264 -283 0
-14 -17 265 0
14 17 265 0
-17 17 265 0
-262 -265 266 0
-15 18 -267 0
-266 267 -268 0
268 -283 0
-15 -18 269 0
15 18 269 0
-18 18 269 0
-266 -269 270 0
-25 28 -271 0
-270 271 -272 0
272 -283 0
-25 -28 273 0
25 28 273 0
-28 28 273 0
-270 -273 274 0
-26 29 -275 0
-274 275 -276 0
276 -283 0
-26 -29 277 0
26 29 277 0
-29 29 277 0
-274 -277 278 0
-27 30 -279 0
-278 279 -280 0
280 -283 0
283 -544 0
-38 39 -284 0
284 -330 0
-38 -39 285 0
38 39 285 0
-39 39 285 0
-42 43 -286 0
-285 286 -287 0
287 -330 0
-42 -43 288 0
42 43 288 0
-43 43 288 0
-285 -288 289 0
-46 47 -290 0
-289 290 -291 0
291 -330 0
-46 -47 292 0
46 47 292 0
-47 47 292 0
-289 -292 293 0
-4 7 -294 0
-293 294 -295 0
295 -330 0
-4 -7 296 0
4 7 296 0
-7 7 296 0
-293 -296 297 0
-5 8 -298 0
-297 298 -299 0
299 -330 0
-5 -8 300 0
5 8 300 0
-8 8 300 0
-297 -300 301 0
-6 9 -302 0
-301 302 -303 0
303 -330 0
-6 -9 304 0
6 9 304 0
-9 9 304 0
-301 -304 305 0
-16 19 -306 0
-305 306 -307 0
307 -330 0
-16 -19 308 0
16 19 308 0
-19 19 308 0
-305 -308 309 0
-17 20 -310 0
-309 310 -311 0
311 -330 0
-17 -20 312 0
17 20 312 0
-20 20 312 0
-309 -312 313 0
-18 21 -314 0
-313 314 -315 0
315 -330 0
-18 -21 316 0
18 21 316 0
-21 21 316 0
-313 -316 317 0
-28 31 -318 0
-317 318 -319 0
319 -330 0
-28 -31 320 0
28 31 320 0
-31 31 320 0
-317 -320 321 0
-29 32 -322 0
-321 322 -323 0
323 -330 0
-29 -32 324 0
29 32 324 0
-32 32 324 0
-321 -324 325 0
-30 33 -326 0
-325 326 -327 0
327 -330 0
330 -544 0
-39 40 -331 0
331 -377 0
-39 -40 332 0
39 40 332 0
-40 40 332 0
-43 44 -333 0
-332 333 -334 0
334 -377 0
-43 -44 335 0
43 44 335 0
-44 44 335 0
-332 -335 336 0
-47 48 -337 0
-336 337 -338 0
338 -377 0
-47 -48 339 0
47 48 339 0
-48 48 339 0
-336 -339 340 0
-7 10 -341 0
-340 341 -342 0
342 -377 0
-7 -10 343 0
7 10 343 0
-10 10 343 0
-340 -343 344 0
-8 11 -345 0
-344 345 -346 0
346 -377 0
-8 -11 347 0
8 11 347 0
-11 11 347 0
-344 -347 348 0
-9 12 -349 0
-348 349 -350 0
350 -377 0
-9 -12 351 0
9 12 351 0
-12 12 351 0
-348 -351 352 0
-19 22 -353 0
-352 353 -354 0
354 -377 0
-19 -22 355 0
19 22 355 0
-22 22 355 0
-352 -355 356 0
-20 23 -357 0
-356 357 -358 0
358 -377 0
-20 -23 359 0
20 23 359 0
-23 23 359 0
-356 -359 360 0
-21 24 -361 0
-360 361 -362 0
362 -377 0
-21 -24 363 0
21 24 363 0
-24 24 363 0
-360 -363 364 0
-31 34 -365 0
-364 365 -366 0
366 -377 0
-31 -34 367 0
31 34 367 0
-34 34 367 0
-364 -367 368 0
-32 35 -369 0
-368 369 -370 0
370 -377 0
-32 -35 371 0
32 35 371 0
-35 35 371 0
-368 -371 372 0
-33 36 -373 0
-372 373 -374 0
374 -377 0
377 -544 0
-49 50 -378 0
378 -460 0
-49 -50 379 0
49 50 379 0
-50 50 379 0
-37 41 -380 0
-379 380 -381 0
381 -460 0
-37 -41 382 0
37 41 382 0
-41 41 382 0
-379 -382 383 0
-38 42 -384 0
-383 384 -385 0
385 -460 0
-38 -42 386 0
38 42 386 0
-42 42 386 0
-383 -386 387 0
-39 43 -388 0
-387 388 -389 0
389 -460 0
-39 -43 390 0
39 43 390 0
-43 43 390 0
-387 -390 391 0
-40 44 -392 0
-391 392 -393 0
393 -460 0
-40 -44 394 0
40 44 394 0
-44 44 394 0
-391 -394 395 0
-1 14 -396 0
-395 396 -397 0
397 -460 0
-1 -14 398 0
1 14 398 0
-14 14 398 0
-395 -398 399 0
-2 13 -400 0
-399 400 -401 0
401 -460 0
-2 -13 402 0
2 13 402 0
-13 13 402 0
-399 -402 403 0
-3 15 -404 0
-403 404 -405 0
405 -460 0
-3 -15 406 0
3 15 406 0
-15 15 406 0
-403 -406 407 0
-4 17 -408 0
-407 408 -409 0
409 -460 0
-4 -17 410 0
4 17 410 0
-17 17 410 0
-407 -410 411 0
-5 16 -412 0
-411 412 -413 0
413 -460 0
-5 -16 414 0
5 16 414 0
-16 16 414 0
-411 -414 415 0
-6 18 -416 0
-415 416 -417 0
417 -460 0
-6 -18 418 0
6 18 418 0
-18 18 418 0
-415 -418 419 0
-7 20 -420 0
-419 420 -421 0
421 -460 0
-7 -20 422 0
7 20 422 0
-20 20 422 0
-419 -422 423 0
-8 19 -424 0
-423 424 -425 0
425 -460 0
-8 -19 426 0
8 19 426 0
-19 19 426 0
-423 -426 427 0
-9 21 -428 0
-427 428 -429 0
429 -460 0
-9 -21 430 0
9 21 430 0
-21 21 430 0
-427 -430 431 0
-10 23 -432 0
-431 432 -433 0
433 -460 0
-10 -23 434 0
10 23 434 0
-23 23 434 0
-431 -434 435 0
-11 22 -436 0
-435 436 -437 0
437 -460 0
-11 -22 438 0
11 22 438 0
-22 22 438 0
-435 -438 439 0
-12 24 -440 0
-439 440 -441 0
441 -460 0
-12 -24 442 0
12 24 442 0
-24 24 442 0
-439 -442 443 0
-25 26 -444 0
-443 444 -445 0
445 -460 0
-25 -26 446 0
25 26 446 0
-26 26 446 0
-443 -446 447 0
-28 29 -448 0
-447 448 -449 0
449 -460 0
-28 -29 450 0
28 29 450 0
-29 29 450 0
-447 -450 451 0
-31 32 -452 0
-451 452 -453 0
453 -460 0
-31 -32 454 0
31 32 454 0
-32 32 454 0
-451 -454 455 0
-34 35 -456 0
-455 456 -457 0
457 -460 0
460 -544 0
-50 51 -461 0
461 -543 0
-50 -51 462 0
50 51 462 0
-51 51 462 0
-41 45 -463 0
-462 463 -464 0
464 -543 0
-41 -45 465 0
41 45 465 0
-45 45 465 0
-462 -465 466 0
-42 46 -467 0
-466 467 -468 0
468 -543 0
-42 -46 469 0
42 46 469 0
-46 46 469 0
-466 -469 470 0
-43 47 -471 0
-470 471 -472 0
472 -543 0
-43 -47 473 0
43 47 473 0
-47 47 473 0
-470 -473 474 0
-44 48 -475 0
-474 475 -476 0
476 -543 0
-44 -48 477 0
44 48 477 0
-48 48 477 0
-474 -477 478 0
-2 3 -479 0
-478 479 -480 0
480 -543 0
-2 -3 481 0
2 3 481 0
-3 3 481 0
-478 -481 482 0
-5 6 -483 0
-482 483 -484 0
484 -543 0
-5 -6 485 0
5 6 485 0
-6 6 485 0
-482 -485 486 0
-8 9 -487 0
-486 487 -488 0
488 -543 0
-8 -9 489 0
8 9 489 0
-9 9 489 0
-486 -489 490 0
-11 12 -491 0
-490 491 -492 0
492 -543 0
-11 -12 493 0
11 12 493 0
-12 12 493 0
-490 -493 494 0
-13 25 -495 0
-494 495 -496 0
496 -543 0
-13 -25 497 0
13 25 497 0
-25 25 497 0
-494 -497 498 0
-14 27 -499 0
-498 499 -500 0
500 -543 0
-14 -27 501 0
14 27 501 0
-27 27 501 0
-498 -501 502 0
-15 26 -503 0
-502 503 -504 0
504 -543 0
-15 -26 505 0
15 26 505 0
-26 26 505 0
-502 -505 506 0
-16 28 -507 0
-506 507 -508 0
508 -543 0
-16 -28 509 0
16 28 509 0
-28 28 509 0
-506 -509 510 0
-17 30 -511 0
-510 511 -512 0
512 -543 0
-17 -30 513 0
17 30 513 0
-30 30 513 0
-510 -513 514 0
-18 29 -515 0
-514 515 -516 0
516 -543 0
-18 -29 517 0
18 29 517 0
-29 29 517 0
-514 -517 518 0
-19 31 -519 0
-518 519 -520 0
520 -543 0
-19 -31 521 0
19 31 521 0
-31 31 521 0
-518 -521 522 0
-20 33 -523 0
-522 523 -524 0
524 -543 0
-20 -33 525 0
20 33 525 0
-33 33 525 0
-522 -525 526 0
-21 32 -527 0
-526 527 -528 0
528 -543 0
-21 -32 529 0
21 32 529 0
-32 32 529 0
-526 -529 530 0
-22 34 -531 0
-530 531 -532 0
532 -543 0
-22 -34 533 0
22 34 533 0
-34 34 533 0
-530 -533 534 0
-23 36 -535 0
-534 535 -536 0
536 -543 0
-23 -36 537 0
23 36 537 0
-36 36 537 0
-534 -537 538 0
-24 35 -539 0
-538 539 -540 0
540 -543 0
543 -544 0
236 0
544 0
